#Put Keywords Here, check Charge and Multiplicity.

 

0  1
C           0.00000         0.00000         0.00000
C           1.47020         0.00000         0.00000
C           2.11473         0.00000         1.17823
N          -0.54429        -0.04320         1.25584
N           1.50696        -0.00410         2.39777
C           0.20721        -0.02391         2.39824
H          -1.55681        -0.03570         1.32199
N           2.34063         0.16085        -1.07884
N           3.47427         0.13418         0.90144
C           3.66307         0.43697        -0.51697
H           1.98559         0.82307        -1.76017
H           3.93746         1.48794        -0.65867
H           4.42233        -0.21306        -0.96124
H           3.93421         0.73380         1.57408
N          -0.48160        -0.01992         3.56312
H           0.05978        -0.28423         4.37613
H          -1.45250        -0.33086         3.57079
O          -0.67365         0.05519        -1.02561
N          -3.49152        -0.12267        -1.05126
C          -4.16992        -0.27833         0.12644
H          -3.79878        -0.66520        -1.84749
H          -2.46925        -0.12877        -0.97403
N          -3.45657        -0.25224         1.21628
C          -4.08019        -0.40045         2.42843
N          -5.44527        -0.53321         2.45102
C          -6.21624        -0.56161         1.32823
H          -5.86084        -0.62095         3.36935
C          -5.65576        -0.45389         0.12049
H          -7.28608        -0.67379         1.47370
C          -6.40894        -0.45793        -1.16686
H          -7.48771        -0.55901        -1.00645
H          -6.08978        -1.29434        -1.79704
H          -6.24264         0.47575        -1.71403
O          -3.44050        -0.42524         3.47765

